766.23
0 55 36 72 89 33 47 19 25 31 88 78 21 62 44 43 94 37 7 60 59 3 99 12 79 32 5 26 54 40 22 16 39 2 73 71 56 10 14 65 13 85 50 97 1 84 11 90 53 29 93 80 34 95 46 96 23 61 41 67 20 49 6 91 58 86 17 18 24 92 74 66 57 64 52 75 51 35 87 27 70 28 45 69 82 98 77 38 8 76 9 81 42 30 48 83 15 63 4 68
